SCIP Status        : solving was interrupted [time limit reached]
Total Time         :    3600.00
  solving          :    3599.99
  presolving       :       0.45 (included in solving)
  reading          :       0.01
  copying          :       2.50 (51 #copies) (minimal 0.00, maximal 0.12, average 0.05)
Original Problem   :
  Problem name     : bbbenchmark/g05_100.7.cut
  Variables        : 101 (100 binary, 0 integer, 0 implicit integer, 1 continuous)
  Constraints      : 1 initial, 1 maximal
  Objective        : minimize, 1 non-zeros (abs.min = 1, abs.max = 1)
Presolved Problem  :
  Problem name     : t_bbbenchmark/g05_100.7.cut
  Variables        : 1952 (100 binary, 0 integer, 1839 implicit integer, 13 continuous)
  Constraints      : 1876 initial, 10276 maximal
  Objective        : minimize, 1 non-zeros (abs.min = 1, abs.max = 1)
  Nonzeros         : 8801 constraint, 202 clique table
Presolvers         :   ExecTime  SetupTime  Calls  FixedVars   AggrVars   ChgTypes  ChgBounds   AddHoles    DelCons    AddCons   ChgSides   ChgCoefs
  boundshift       :       0.00       0.00      0          0          0          0          0          0          0          0          0          0
  convertinttobin  :       0.00       0.00      0          0          0          0          0          0          0          0          0          0
  domcol           :       0.00       0.00      1          0          0          0          0          0          0          0          0          0
  dualagg          :       0.00       0.00      0          0          0          0          0          0          0          0          0          0
  dualcomp         :       0.00       0.00      1          0          0          0          0          0          0          0          0          0
  dualinfer        :       0.00       0.00      0          0          0          0          0          0          0          0          0          0
  dualsparsify     :       0.00       0.00      1          0          0          0          0          0          0          0          0          0
  gateextraction   :       0.00       0.00      0          0          0          0          0          0          0          0          0          0
  implics          :       0.00       0.00      2          0          0          0          0          0          0          0          0          0
  inttobinary      :       0.00       0.00      0          0          0          0          0          0          0          0          0          0
  qpkktref         :       0.00       0.00      0          0          0          0          0          0          0          0          0          0
  redvub           :       0.00       0.00      0          0          0          0          0          0          0          0          0          0
  sparsify         :       0.00       0.00      1          0          0          0          0          0          0          0          0          0
  stuffing         :       0.00       0.00      0          0          0          0          0          0          0          0          0          0
  trivial          :       0.00       0.00      4          0          0          0          0          0          0          0          0          0
  tworowbnd        :       0.00       0.00      0          0          0          0          0          0          0          0          0          0
  dualfix          :       0.00       0.00      4          0          0          0          0          0          0          0          0          0
  genvbounds       :       0.00       0.00      0          0          0          0          0          0          0          0          0          0
  probing          :       0.32       0.00      1          0          0          0          0          0          0          0          0          0
  pseudoobj        :       0.00       0.00      1          0          0          0          1          0          0          0          0          0
  symmetry         :       0.00       0.00      0          0          0          0          0          0          0          0          0          0
  vbounds          :       0.00       0.00      1          0          0          0          0          0          0          0          0          0
  varbound         :       0.00       0.00      2          0          0          0          0          0          0          0          0          0
  and              :       0.01       0.00      2          0          0          0          0          0          0          0          0          0
  linear           :       0.00       0.00      2          0          0          0          0          0          0          0          0          0
  logicor          :       0.00       0.00      0          0          0          0          0          0          0          0          0          0
  bounddisjunction :       0.00       0.00      0          0          0          0          0          0          0          0          0          0
  nonlinear        :       0.11       0.01      5          0          0          0          1          0          0       1875          0          0
  benders          :       0.00       0.00      0          0          0          0          0          0          0          0          0          0
  components       :       0.00       0.00      1          0          0          0          0          0          0          0          0          0
  root node        :          -          -      -          0          -          -         14          -          -          -          -          -
Constraints        :     Number  MaxNumber  #Separate #Propagate    #EnfoLP    #EnfoRelax  #EnfoPS    #Check   #ResProp    Cutoffs    DomReds       Cuts    Applied      Conss   Children
  benderslp        :          0          0          0          0      84416          0          0      10083          0          0          0          0          0          0          0
  integral         :          0          0          0          0      84416          0          0      10083          0          0       2853          0          0       1956     165990
  varbound         :         12         12         57     588690          0          0          0         23          0          0      22421          0          0          0          0
  and              :       1839       1839      97894     662150          1          0          0         23     428336          8    2082506       2299       2226          0          0
  linear           :         25+        76         57     662173          1          0          0         21        649          9     245492          0          0          0          0
  logicor          :          0+      8090          0     126660          0          0          0          0        420        575         70          0          0          0          0
  bounddisjunction :          0+       360          0      46736          0          0          0          0          0         36          4          0          0          0          0
  benders          :          0          0          0          0          1          0          0         22          0          0          0          0          0          0          0
  countsols        :          0          0          0          0          1          0          0         22          0          0          0          0          0          0          0
  components       :          0          0          0          0          0          0          0          0          0          0          0          0          0          0          0
Constraint Timings :  TotalTime  SetupTime   Separate  Propagate     EnfoLP     EnfoPS     EnfoRelax   Check    ResProp    SB-Prop
  benderslp        :       0.11       0.00       0.00       0.00       0.11       0.00       0.00       0.00       0.00       0.00
  integral         :      78.06       0.00       0.00       0.00      78.03       0.00       0.00       0.03       0.00       0.00
  varbound         :       0.60       0.00       0.00       0.60       0.00       0.00       0.00       0.00       0.00       0.00
  and              :     134.90       0.00      89.62      44.02       0.00       0.00       0.00       0.02       0.42       0.82
  linear           :       4.04       0.00       0.04       3.92       0.00       0.00       0.00       0.00       0.00       0.08
  logicor          :      11.42       0.00       0.00      11.37       0.00       0.00       0.00       0.00       0.00       0.05
  bounddisjunction :       0.79       0.00       0.00       0.79       0.00       0.00       0.00       0.00       0.00       0.00
  benders          :       0.00       0.00       0.00       0.00       0.00       0.00       0.00       0.00       0.00       0.00
  countsols        :       0.00       0.00       0.00       0.00       0.00       0.00       0.00       0.00       0.00       0.00
  components       :       0.11       0.00       0.00       0.11       0.00       0.00       0.00       0.00       0.00       0.00
Propagators        : #Propagate   #ResProp    Cutoffs    DomReds
  dualfix          :          4          0          0          0
  genvbounds       :          0          0          0          0
  nlobbt           :          0          0          0          0
  obbt             :          0          0          0          0
  probing          :          0          0          0          0
  pseudoobj        :     343370          0          0         15
  redcost          :     195972          0          0     151141
  rootredcost      :         13          0          0          0
  symmetry         :          0          0          0          0
  vbounds          :      86383          0          0          0
Propagator Timings :  TotalTime  SetupTime   Presolve  Propagate    ResProp    SB-Prop
  dualfix          :       0.00       0.00       0.00       0.00       0.00       0.00
  genvbounds       :       0.49       0.00       0.00       0.49       0.00       0.00
  nlobbt           :       0.00       0.00       0.00       0.00       0.00       0.00
  obbt             :       0.00       0.00       0.00       0.00       0.00       0.00
  probing          :       0.32       0.00       0.32       0.00       0.00       0.00
  pseudoobj        :       0.90       0.00       0.00       0.90       0.00       0.00
  redcost          :      18.43       0.00       0.00      18.43       0.00       0.00
  rootredcost      :       0.64       0.00       0.00       0.64       0.00       0.00
  symmetry         :       0.25       0.00       0.00       0.23       0.00       0.02
  vbounds          :       0.54       0.00       0.00       0.54       0.00       0.00
Conflict Analysis  :       Time      Calls    Success    DomReds  Conflicts   Literals    Reconvs ReconvLits   Dualrays   Nonzeros   LP Iters   (pool size: [10000,10000])
  propagation      :       0.03        619        534          -        629       62.2          0        0.0          -          -          -
  infeasible LP    :       0.05         21         21          -        920      154.3          0        0.0        111      107.1          0
  bound exceed. LP :      29.40       9202       7944          -     133112       98.4          1       11.0          0        0.0      58555
  strong branching :       0.00          0          0          -          0        0.0          0        0.0          -          -          0
  pseudo solution  :       0.00          0          0          -          0        0.0          0        0.0          -          -          -
  applied globally :       0.87          -          -          0      33399      103.4          -          -        111          -          -
  applied locally  :          -          -          -          0          0        0.0          -          -          0          -          -
Separators         :   ExecTime  SetupTime      Calls  RootCalls    Cutoffs    DomReds  FoundCuts ViaPoolAdd  DirectAdd    Applied ViaPoolApp  DirectApp      Conss
  cut pool         :       7.25          -      24482         84          -          -      38625    1637998          -          -          -          -          -    (maximal pool size:       3012)
  aggregation      :      11.60       0.00       4851         57          0          0         91        343          0         73         73          0          0
  > cmir           :          -          -          -          -          -          -          -        343          0         73         73          0          -
  > flowcover      :          -          -          -          -          -          -          -          0          0          0          0          0          -
  > knapsackcover  :          -          -          -          -          -          -          -          0          0          0          0          0          -
  cgmip            :       0.00       0.00          0          0          0          0          0          0          0          0          0          0          0
  clique           :       0.00       0.00         57         57          0          0          0          0          0          0          0          0          0
  closecuts        :       0.00       0.00          0          0          0          0          0          0          0          0          0          0          0
  convexproj       :       0.00       0.00          0          0          0          0          0          0          0          0          0          0          0
  disjunctive      :       0.00       0.00          0          0          0          0          0          0          0          0          0          0          0
  eccuts           :       0.00       0.00          0          0          0          0          0          0          0          0          0          0          0
  gauge            :       0.00       0.00          0          0          0          0          0          0          0          0          0          0          0
  gomory           :       0.00       0.00          0          0          0          0          0          0          0          0          0          0          0
  > gomorymi       :          -          -          -          -          -          -          -          0          0          0          0          0          -
  > strongcg       :          -          -          -          -          -          -          -          0          0          0          0          0          -
  impliedbounds    :       0.36       0.00       4851         57          0          0          1          0          0          0          0          0          0
  interlattice     :       0.24       0.00         30         30          0          0         30          0         30         30          0         30          0
  interminor       :       0.00       0.00          0          0          0          0          0          0          0          0          0          0          0
  intersub         :       0.00       0.00          0          0          0          0          0          0          0          0          0          0          0
  intobj           :       0.00       0.00          0          0          0          0          0          0          0          0          0          0          0
  mcf              :       0.01       0.00          1          1          0          0          0          0          0          0          0          0          0
  minor            :       0.00       0.00          0          0          0          0          0          0          0          0          0          0          0
  mixing           :       0.02       0.00       4851         57          0          0          0          0          0          0          0          0          0
  oddcycle         :       0.00       0.00          0          0          0          0          0          0          0          0          0          0          0
  rapidlearning    :       0.00       0.00          0          0          0          0          0          0          0          0          0          0          0
  rlt              :       0.00       0.00         10         10          0          0          0          0          0          0          0          0          0
  zerohalf         :      44.78       0.00       4181         20          0          0      38533    1637655          0     180504     180504          0          0
Cutselectors       :   ExecTime  SetupTime      Calls  RootCalls   Selected     Forced   Filtered  RootSelec   RootForc   RootFilt 
  hybrid           :       1.94       0.00      15896         55     182833          0    1457494        234          0          3
Pricers            :   ExecTime  SetupTime      Calls       Vars
  problem variables:       0.00          -          0          0
Branching Rules    :   ExecTime  SetupTime   BranchLP  BranchExt   BranchPS    Cutoffs    DomReds       Cuts      Conss   Children
  allfullstrong    :       0.00       0.00          0          0          0          0          0          0          0          0
  cloud            :       0.00       0.00          0          0          0          0          0          0          0          0
  distribution     :       0.00       0.00          0          0          0          0          0          0          0          0
  fullstrong       :       0.00       0.00          0          0          0          0          0          0          0          0
  inference        :       0.00       0.00          0          0          0          0          0          0          0          0
  leastinf         :       0.00       0.00          0          0          0          0          0          0          0          0
  lookahead        :       0.00       0.00          0          0          0          0          0          0          0          0
  mostinf          :       0.00       0.00          0          0          0          0          0          0          0          0
  multaggr         :       0.00       0.00          0          0          0          0          0          0          0          0
  nodereopt        :       0.00       0.00          0          0          0          0          0          0          0          0
  pscost           :       0.00       0.00          0          0          0          0          0          0          0          0
  random           :       0.00       0.00          0          0          0          0          0          0          0          0
  relpscost        :      77.67       0.00      84415          0          0          0       2853          0       1958     165990
  vanillafullstrong:       0.00       0.00          0          0          0          0          0          0          0          0
Primal Heuristics  :   ExecTime  SetupTime      Calls      Found       Best
  LP solutions     :       0.00          -          -          1          1
  relax solutions  :       0.00          -          -          0          0
  pseudo solutions :       0.00          -          -          0          0
  strong branching :       0.02          -          -          0          0
  actconsdiving    :       0.00       0.00          0          0          0
  adaptivediving   :      14.46       0.00        104          1          1
  alns             :       2.88       0.00         20          3          3
  bound            :       0.00       0.00          0          0          0
  clique           :       0.01       0.00          1          0          0
  coefdiving       :       0.00       0.00          0          0          0
  completesol      :       0.00       0.00          0          0          0
  conflictdiving   :     174.38       0.00       1237          0          0
  crossover        :       5.01       0.00         10          1          1
  dins             :       0.00       0.00          0          0          0
  distributiondivin:      81.89       0.00        341          0          0
  dps              :       0.00       0.00          0          0          0
  dualval          :       0.00       0.00          0          0          0
  farkasdiving     :       0.03       0.00          0          0          0
  feaspump         :       0.18       0.00          1          1          1
  fixandinfer      :       0.00       0.00          0          0          0
  fracdiving       :      62.16       0.00        487          0          0
  gins             :       0.10       0.00          0          0          0
  guideddiving     :      60.71       0.00        456          0          0
  indicator        :       0.08       0.00          0          0          0
  indicatordiving  :       0.00       0.00          0          0          0
  intdiving        :       0.00       0.00          0          0          0
  intshifting      :       0.84       0.00        100          0          0
  linesearchdiving :      60.65       0.00        472          0          0
  localbranching   :       0.00       0.00          0          0          0
  locks            :       0.01       0.00          1          0          0
  lpface           :       0.11       0.00          0          0          0
  mpec             :     427.67       0.00         11          5          5
  multistart       :       0.00       0.00          0          0          0
  mutation         :       0.00       0.00          0          0          0
  nlpdiving        :      90.37       0.00          3          0          0
  objpscostdiving  :      35.19       0.00         35          2          0
  octane           :       0.00       0.00          0          0          0
  ofins            :       0.04       0.00          0          0          0
  oneopt           :       0.07       0.00         17          0          0
  padm             :       0.00       0.00          0          0          0
  proximity        :       0.00       0.00          0          0          0
  pscostdiving     :      59.22       0.00        378          1          1
  randrounding     :       0.86       0.00      10058          0          0
  rens             :       0.00       0.00          0          0          0
  reoptsols        :       0.00       0.00          0          0          0
  repair           :       0.00       0.00          0          0          0
  rins             :       6.25       0.00         20          0          0
  rootsoldiving    :      37.13       0.00         28          0          0
  rounding         :       2.21       0.00       4392          0          0
  shiftandpropagate:       0.00       0.00          0          0          0
  shifting         :      51.27       0.00       9239          2          2
  simplerounding   :       0.11       0.00          0          0          0
  subnlp           :     173.71       0.00          0          0          0
  trivial          :       0.01       0.00          2          2          2
  trivialnegation  :       0.00       0.00          0          0          0
  trustregion      :       0.00       0.00          0          0          0
  trysol           :       0.17       0.00          0          0          0
  twoopt           :       0.00       0.00          0          0          0
  undercover       :       1.58       0.00          1          1          1
  vbounds          :       0.00       0.00          0          0          0
  veclendiving     :      60.92       0.00        519          0          0
  zeroobj          :       0.00       0.00          0          0          0
  zirounding       :       0.55       0.00       1000          0          0
  other solutions  :          -          -          -          0          -
Diving (single)    :      Calls      Nodes   LP Iters Backtracks  Conflicts   MinDepth   MaxDepth   AvgDepth  RoundSols  NLeafSols  MinSolDpt  MaxSolDpt  AvgSolDpt
  actconsdiving    :          0          -          -          -          -          -          -          -          -          -          -          -          -
  coefdiving       :          0          -          -          -          -          -          -          -          -          -          -          -          -
  conflictdiving   :       1237      55108    1676398       1382      48970         52         83       67.5          0          -          -          -          -
  distributiondivin:        341      11776     573622        376       5980         46         67       56.1          0          -          -          -          -
  farkasdiving     :          0          -          -          -          -          -          -          -          -          -          -          -          -
  fracdiving       :        487      41051     567656        267       3404         55        319      106.9          0          -          -          -          -
  guideddiving     :        456      39367     568685        251       4899         55        264      108.0          0          -          -          -          -
  indicatordiving  :          0          -          -          -          -          -          -          -          -          -          -          -          -
  linesearchdiving :        472      17944     568917        475      23218         47         86       59.5          0          -          -          -          -
  pscostdiving     :        378      16802     586358        391       8239         56         82       65.8          0          1         82         82       82.0
  veclendiving     :        519      21227     566974        518      29039         54         83       63.1          0          -          -          -          -
Diving (adaptive)  :      Calls      Nodes   LP Iters Backtracks  Conflicts   MinDepth   MaxDepth   AvgDepth  RoundSols  NLeafSols  MinSolDpt  MaxSolDpt  AvgSolDpt
  actconsdiving    :         12        443      17930         13        101         53         59       56.8          0          -          -          -          -
  coefdiving       :         37       1586      44359         28       1955         54         78       62.4          0          -          -          -          -
  conflictdiving   :          0          -          -          -          -          -          -          -          -          -          -          -          -
  distributiondivin:          0          -          -          -          -          -          -          -          -          -          -          -          -
  farkasdiving     :          0          -          -          -          -          -          -          -          -          -          -          -          -
  fracdiving       :          3        341       4778          3         44         81        202      134.7          0          -          -          -          -
  guideddiving     :          6        468       5788          2         30         69        159      103.5          0          1         95         95       95.0
  indicatordiving  :          0          -          -          -          -          -          -          -          -          -          -          -          -
  linesearchdiving :         21        830      27968         17       1192         48         69       59.1          0          -          -          -          -
  pscostdiving     :          8        373      12427          8        232         60         73       66.6          0          -          -          -          -
  veclendiving     :         17        738      17282         15        956         58         70       64.8          0          -          -          -          -
Neighborhoods      :      Calls  SetupTime  SolveTime SolveNodes       Sols       Best       Exp3  EpsGreedy        UCB TgtFixRate  Opt  Inf Node Stal  Sol  Usr Othr Actv
  rens             :          2       0.13       0.02          1          0          0    0.00000   -1.00000    0.54885      0.550    0    2    0    0    0    0    0    1
  rins             :          1       0.04       0.01          9          0          0    0.00000   -1.00000    0.56079      0.700    0    1    0    0    0    0    0    1
  mutation         :          4       0.51       0.34        181          1          1    0.00000   -1.00000    0.54561      0.672    0    2    0    2    0    0    0    1
  localbranching   :          3       0.25       0.32        394          1          1    0.00000   -1.00000    0.48121      0.812    0    1    0    2    0    0    0    1
  crossover        :          2       0.20       0.10         69          0          0    0.00000   -1.00000    0.47285      0.850    0    1    0    1    0    0    0    1
  proximity        :          1       0.04       0.01         16          0          0    0.00000   -1.00000    0.55379      0.700    0    1    0    0    0    0    0    1
  zeroobjective    :          5       0.26       0.15        184          1          1    0.00000   -1.00000    0.54211      0.879    1    1    0    3    0    0    0    1
  dins             :          2       0.22       0.07         79          0          0    0.00000   -1.00000    0.46985      0.850    0    1    0    1    0    0    0    1
  trustregion      :          0       0.00       0.00          0          0          0    0.00000   -1.00000    1.00000      0.900    0    0    0    0    0    0    0    0
Expressions        :   #IntEval  IntEvalTi   #RevProp  RevPropTi    DomReds    Cutoffs  #Estimate  EstimTime  Branching  #Simplify SimplifyTi Simplified
  pow              :          0       0.00          0       0.00          0          0          0       0.00          0          0       0.00          0
  prod             :       9900       0.00          0       0.00          0          0          0       0.00          0       6789       0.00          0
  sum              :          8       0.00          2       0.00          0          0          0       0.00          0          3       0.03          2
  var              :       6665       0.01          0       0.00          0          0          0       0.00          0      15732       0.00          0
  varidx           :          0       0.00          0       0.00          0          0          0       0.00          0          0       0.00          0
LP                 :       Time      Calls Iterations  Iter/call   Iter/sec  Time-0-It Calls-0-It    ItLimit
  primal LP        :      76.95       9915          0       0.00       0.00      76.85       9915
  dual LP          :    1629.65     148318   11104048      81.00    6813.76       6.09      11235
  lex dual LP      :       0.00          0          0       0.00          -
  barrier LP       :       0.00          0          0       0.00          -       0.00          0
  resolve instable :       0.00          0          0       0.00          -
  diving/probing LP:     539.36      17794    5627906     316.28   10434.41
  strong branching :      29.21       3341     254567      76.19    8715.06          -          -         79
    (at root node) :          -         19       3474     182.84          -
  conflict analysis:      10.70       6011      58555       9.74    5472.43
NLP relaxation     :
  solve time       :      89.00 (16 calls)
  convexity        :  nonconvex (37 linear rows, 0 convex ineq., 0 nonconvex ineq., 1839 nonlinear eq. or two-sided ineq.)
NLP Solvers        :  #Problems  ProblemTi    #Solves  SolveTime      #Iter  Time/Iter      #Okay #TimeLimit #IterLimit #LObjLimit #Interrupt  #NumError #EvalError  #OutOfMem #LicenseEr #OtherTerm   #GlobOpt    #LocOpt  #Feasible #LocInfeas #GlobInfea #Unbounded   #Unknown
  ipopt            :         12       7.57         48     904.71       1737       0.52         46          0          2          0          0          0          0          0          0          0          0         33          0         12          0          0          3
B&B Tree           :
  number of runs   :          1
  nodes            :     119799 (82995 internal, 36804 leaves)
  feasible leaves  :          1
  infeas. leaves   :         27
  objective leaves :      36775
  nodes (total)    :     119799 (82995 internal, 36804 leaves)
  nodes left       :      45955
  max depth        :         73
  max depth (total):         73
  backtracks       :      21493 (17.9%)
  early backtracks :          0 (0.0%)
  nodes exc. ref.  :          0 (0.0%)
  delayed cutoffs  :          6
  repropagations   :         76 (228 domain reductions, 2 cutoffs)
  avg switch length:       5.12
  switching time   :     109.50
Estim. Tree Size   :     240072
Estimation Tree    : 165991 nodes (120036 visited, 82995 internal, 37041 leaves, 45955 open), weight: 0.0000 completed 0.1033
Estimations        :      estim      value      trend resolution     smooth
  wbe              : 2679298827890808          -          -          -          -
  tree-profile     :         -1          -          -          -          -
  gap              :    1493113    0.68412    0.00003         64    1454509
  tree-weight      :     240072    0.00000    0.00000         64     239719
  leaf-frequency   :     240072    0.30858   -0.00000         64     239736
  ssg              :   10066023    0.83687   -0.00001         64    9830870
  open-nodes       :     240072 45955.00000   61.63284         64     239719
Root Node          :
  First LP value   : -1.00000000000000e+00
  First LP Iters   :       1752 (10305.88 Iter/sec)
  First LP Time    :       0.17
  Final Dual Bound : -9.50707070707071e-01
  Final Root Iters :       2733
  Root LP Estimate : -4.07395348396169e-01
Solution           :
  Solutions found  :         20 (18 improvements)
  First Solution   : +1.00000000000000e+05   (in run 1, after 0 nodes, 0.02 seconds, depth 0, found by <trivial>)
  Gap First Sol.   :   infinite
  Gap Last Sol.    :      47.37 %
  Primal Bound     : -5.68080808080806e-01   (in run 1, after 89663 nodes, 2847.52 seconds, depth 60, found by <alns>)
  Dual Bound       : -8.30386604092543e-01
  Gap              :      46.17 %
Integrals          :      Total       Avg%
  primal-dual      :  127456.58      35.40
  primal-ref       :          -          - (not evaluated)
  dual-ref         :          -          - (not evaluated)
